%% From the example in the model arbitrage_loops.mzn:
%%  Trade $100 to €77.79
%%  Trade €77.79 to .8751375 BTC
%%  Trade .8751375 BTC for $101.20965.
%%
%%  USD  EUR     JPY            BTC
n = 4;
m = 4;
start = 1000.0;
currencies = array2d(1..n,1..n,
[
0,      0.7779,  102.4590,  0.0083,
1.2851, 0,       131.7110,  0.01125,
0.0098, 0.0075,  0,         0.0000811,
115.65, 88.8499, 12325.44,  0,
]);
currencies_s = ["USD","EUR","JPY","BTC"];
